p cnf 240 1374
1 31 0
connect_same_number
-1 -61 66 0
-1 -62 67 0
-1 -63 68 0
-1 -64 69 0
-1 -65 70 0
-31 -61 91 0
-31 -62 92 0
-31 -63 93 0
-31 -64 94 0
-31 -65 95 0
onlyOneValue
61 62 63 64 65 0
-61 -62 0
-61 -63 0
-61 -64 0
-61 -65 0
-62 -63 0
-62 -64 0
-62 -65 0
-63 -64 0
-63 -65 0
-64 -65 0
valueFromInput
61 0
LUConner_exact_one_direction
-31 -1 0
2 1 36 0
connect_same_number
-1 -66 61 0
-1 -67 62 0
-1 -68 63 0
-1 -69 64 0
-1 -70 65 0
-2 -66 71 0
-2 -67 72 0
-2 -68 73 0
-2 -69 74 0
-2 -70 75 0
-36 -66 96 0
-36 -67 97 0
-36 -68 98 0
-36 -69 99 0
-36 -70 100 0
onlyOneValue
66 67 68 69 70 0
-66 -67 0
-66 -68 0
-66 -69 0
-66 -70 0
-67 -68 0
-67 -69 0
-67 -70 0
-68 -69 0
-68 -70 0
-69 -70 0
UEdge_has_two_directions
-1 2 36 0
-2 1 36 0
-36 1 2 0
1 -2 -36 0
2 -1 -36 0
36 -1 -2 0
3 2 41 0
connect_same_number
-2 -71 66 0
-2 -72 67 0
-2 -73 68 0
-2 -74 69 0
-2 -75 70 0
-3 -71 76 0
-3 -72 77 0
-3 -73 78 0
-3 -74 79 0
-3 -75 80 0
-41 -71 101 0
-41 -72 102 0
-41 -73 103 0
-41 -74 104 0
-41 -75 105 0
onlyOneValue
71 72 73 74 75 0
-71 -72 0
-71 -73 0
-71 -74 0
-71 -75 0
-72 -73 0
-72 -74 0
-72 -75 0
-73 -74 0
-73 -75 0
-74 -75 0
UEdge_has_two_directions
-2 3 41 0
-3 2 41 0
-41 2 3 0
2 -3 -41 0
3 -2 -41 0
41 -2 -3 0
4 3 46 0
connect_same_number
-3 -76 71 0
-3 -77 72 0
-3 -78 73 0
-3 -79 74 0
-3 -80 75 0
-4 -76 81 0
-4 -77 82 0
-4 -78 83 0
-4 -79 84 0
-4 -80 85 0
-46 -76 106 0
-46 -77 107 0
-46 -78 108 0
-46 -79 109 0
-46 -80 110 0
onlyOneValue
76 77 78 79 80 0
-76 -77 0
-76 -78 0
-76 -79 0
-76 -80 0
-77 -78 0
-77 -79 0
-77 -80 0
-78 -79 0
-78 -80 0
-79 -80 0
UEdge_has_two_directions
-3 4 46 0
-4 3 46 0
-46 3 4 0
3 -4 -46 0
4 -3 -46 0
46 -3 -4 0
5 4 51 0
connect_same_number
-4 -81 76 0
-4 -82 77 0
-4 -83 78 0
-4 -84 79 0
-4 -85 80 0
-5 -81 86 0
-5 -82 87 0
-5 -83 88 0
-5 -84 89 0
-5 -85 90 0
-51 -81 111 0
-51 -82 112 0
-51 -83 113 0
-51 -84 114 0
-51 -85 115 0
onlyOneValue
81 82 83 84 85 0
-81 -82 0
-81 -83 0
-81 -84 0
-81 -85 0
-82 -83 0
-82 -84 0
-82 -85 0
-83 -84 0
-83 -85 0
-84 -85 0
UEdge_has_two_directions
-4 5 51 0
-5 4 51 0
-51 4 5 0
4 -5 -51 0
5 -4 -51 0
51 -4 -5 0
5 56 0
connect_same_number
-5 -86 81 0
-5 -87 82 0
-5 -88 83 0
-5 -89 84 0
-5 -90 85 0
-56 -86 116 0
-56 -87 117 0
-56 -88 118 0
-56 -89 119 0
-56 -90 120 0
onlyOneValue
86 87 88 89 90 0
-86 -87 0
-86 -88 0
-86 -89 0
-86 -90 0
-87 -88 0
-87 -89 0
-87 -90 0
-88 -89 0
-88 -90 0
-89 -90 0
valueFromInput
88 0
RUConner_exact_one_direction
-56 -5 0
6 31 32 0
connect_same_number
-6 -91 96 0
-6 -92 97 0
-6 -93 98 0
-6 -94 99 0
-6 -95 100 0
-31 -91 61 0
-31 -92 62 0
-31 -93 63 0
-31 -94 64 0
-31 -95 65 0
-32 -91 121 0
-32 -92 122 0
-32 -93 123 0
-32 -94 124 0
-32 -95 125 0
onlyOneValue
91 92 93 94 95 0
-91 -92 0
-91 -93 0
-91 -94 0
-91 -95 0
-92 -93 0
-92 -94 0
-92 -95 0
-93 -94 0
-93 -95 0
-94 -95 0
LEdge_has_two_directions
-6 31 32 0
-31 6 32 0
-32 6 31 0
6 -31 -32 0
31 -6 -32 0
32 -6 -31 0
6 7 36 37 0
connect_same_number
-6 -96 91 0
-6 -97 92 0
-6 -98 93 0
-6 -99 94 0
-6 -100 95 0
-7 -96 101 0
-7 -97 102 0
-7 -98 103 0
-7 -99 104 0
-7 -100 105 0
-36 -96 66 0
-36 -97 67 0
-36 -98 68 0
-36 -99 69 0
-36 -100 70 0
-37 -96 126 0
-37 -97 127 0
-37 -98 128 0
-37 -99 129 0
-37 -100 130 0
onlyOneValue
96 97 98 99 100 0
-96 -97 0
-96 -98 0
-96 -99 0
-96 -100 0
-97 -98 0
-97 -99 0
-97 -100 0
-98 -99 0
-98 -100 0
-99 -100 0
has_two_directions
-6 7 36 37 0
-7 6 36 37 0
-36 6 7 37 0
-37 6 7 36 0
6 -7 -36 -37 0
7 -6 -36 -37 0
36 -6 -7 -37 0
37 -6 -7 -36 0
7 8 41 42 0
connect_same_number
-7 -101 96 0
-7 -102 97 0
-7 -103 98 0
-7 -104 99 0
-7 -105 100 0
-8 -101 106 0
-8 -102 107 0
-8 -103 108 0
-8 -104 109 0
-8 -105 110 0
-41 -101 71 0
-41 -102 72 0
-41 -103 73 0
-41 -104 74 0
-41 -105 75 0
-42 -101 131 0
-42 -102 132 0
-42 -103 133 0
-42 -104 134 0
-42 -105 135 0
onlyOneValue
101 102 103 104 105 0
-101 -102 0
-101 -103 0
-101 -104 0
-101 -105 0
-102 -103 0
-102 -104 0
-102 -105 0
-103 -104 0
-103 -105 0
-104 -105 0
has_two_directions
-7 8 41 42 0
-8 7 41 42 0
-41 7 8 42 0
-42 7 8 41 0
7 -8 -41 -42 0
8 -7 -41 -42 0
41 -7 -8 -42 0
42 -7 -8 -41 0
8 9 46 47 0
connect_same_number
-8 -106 101 0
-8 -107 102 0
-8 -108 103 0
-8 -109 104 0
-8 -110 105 0
-9 -106 111 0
-9 -107 112 0
-9 -108 113 0
-9 -109 114 0
-9 -110 115 0
-46 -106 76 0
-46 -107 77 0
-46 -108 78 0
-46 -109 79 0
-46 -110 80 0
-47 -106 136 0
-47 -107 137 0
-47 -108 138 0
-47 -109 139 0
-47 -110 140 0
onlyOneValue
106 107 108 109 110 0
-106 -107 0
-106 -108 0
-106 -109 0
-106 -110 0
-107 -108 0
-107 -109 0
-107 -110 0
-108 -109 0
-108 -110 0
-109 -110 0
valueFromInput
107 0
exact_one_direction
-8 -9 0
-8 -46 0
-8 -47 0
-9 -46 0
-9 -47 0
-46 -47 0
9 10 51 52 0
connect_same_number
-9 -111 106 0
-9 -112 107 0
-9 -113 108 0
-9 -114 109 0
-9 -115 110 0
-10 -111 116 0
-10 -112 117 0
-10 -113 118 0
-10 -114 119 0
-10 -115 120 0
-51 -111 81 0
-51 -112 82 0
-51 -113 83 0
-51 -114 84 0
-51 -115 85 0
-52 -111 141 0
-52 -112 142 0
-52 -113 143 0
-52 -114 144 0
-52 -115 145 0
onlyOneValue
111 112 113 114 115 0
-111 -112 0
-111 -113 0
-111 -114 0
-111 -115 0
-112 -113 0
-112 -114 0
-112 -115 0
-113 -114 0
-113 -115 0
-114 -115 0
has_two_directions
-9 10 51 52 0
-10 9 51 52 0
-51 9 10 52 0
-52 9 10 51 0
9 -10 -51 -52 0
10 -9 -51 -52 0
51 -9 -10 -52 0
52 -9 -10 -51 0
10 56 57 0
connect_same_number
-10 -116 111 0
-10 -117 112 0
-10 -118 113 0
-10 -119 114 0
-10 -120 115 0
-56 -116 86 0
-56 -117 87 0
-56 -118 88 0
-56 -119 89 0
-56 -120 90 0
-57 -116 146 0
-57 -117 147 0
-57 -118 148 0
-57 -119 149 0
-57 -120 150 0
onlyOneValue
116 117 118 119 120 0
-116 -117 0
-116 -118 0
-116 -119 0
-116 -120 0
-117 -118 0
-117 -119 0
-117 -120 0
-118 -119 0
-118 -120 0
-119 -120 0
REdge_has_two_directions
-10 56 57 0
-56 10 57 0
-57 10 56 0
10 -56 -57 0
56 -10 -57 0
57 -10 -56 0
11 32 33 0
connect_same_number
-11 -121 126 0
-11 -122 127 0
-11 -123 128 0
-11 -124 129 0
-11 -125 130 0
-32 -121 91 0
-32 -122 92 0
-32 -123 93 0
-32 -124 94 0
-32 -125 95 0
-33 -121 151 0
-33 -122 152 0
-33 -123 153 0
-33 -124 154 0
-33 -125 155 0
onlyOneValue
121 122 123 124 125 0
-121 -122 0
-121 -123 0
-121 -124 0
-121 -125 0
-122 -123 0
-122 -124 0
-122 -125 0
-123 -124 0
-123 -125 0
-124 -125 0
LEdge_has_two_directions
-11 32 33 0
-32 11 33 0
-33 11 32 0
11 -32 -33 0
32 -11 -33 0
33 -11 -32 0
11 12 37 38 0
connect_same_number
-11 -126 121 0
-11 -127 122 0
-11 -128 123 0
-11 -129 124 0
-11 -130 125 0
-12 -126 131 0
-12 -127 132 0
-12 -128 133 0
-12 -129 134 0
-12 -130 135 0
-37 -126 96 0
-37 -127 97 0
-37 -128 98 0
-37 -129 99 0
-37 -130 100 0
-38 -126 156 0
-38 -127 157 0
-38 -128 158 0
-38 -129 159 0
-38 -130 160 0
onlyOneValue
126 127 128 129 130 0
-126 -127 0
-126 -128 0
-126 -129 0
-126 -130 0
-127 -128 0
-127 -129 0
-127 -130 0
-128 -129 0
-128 -130 0
-129 -130 0
has_two_directions
-11 12 37 38 0
-12 11 37 38 0
-37 11 12 38 0
-38 11 12 37 0
11 -12 -37 -38 0
12 -11 -37 -38 0
37 -11 -12 -38 0
38 -11 -12 -37 0
12 13 42 43 0
connect_same_number
-12 -131 126 0
-12 -132 127 0
-12 -133 128 0
-12 -134 129 0
-12 -135 130 0
-13 -131 136 0
-13 -132 137 0
-13 -133 138 0
-13 -134 139 0
-13 -135 140 0
-42 -131 101 0
-42 -132 102 0
-42 -133 103 0
-42 -134 104 0
-42 -135 105 0
-43 -131 161 0
-43 -132 162 0
-43 -133 163 0
-43 -134 164 0
-43 -135 165 0
onlyOneValue
131 132 133 134 135 0
-131 -132 0
-131 -133 0
-131 -134 0
-131 -135 0
-132 -133 0
-132 -134 0
-132 -135 0
-133 -134 0
-133 -135 0
-134 -135 0
has_two_directions
-12 13 42 43 0
-13 12 42 43 0
-42 12 13 43 0
-43 12 13 42 0
12 -13 -42 -43 0
13 -12 -42 -43 0
42 -12 -13 -43 0
43 -12 -13 -42 0
13 14 47 48 0
connect_same_number
-13 -136 131 0
-13 -137 132 0
-13 -138 133 0
-13 -139 134 0
-13 -140 135 0
-14 -136 141 0
-14 -137 142 0
-14 -138 143 0
-14 -139 144 0
-14 -140 145 0
-47 -136 106 0
-47 -137 107 0
-47 -138 108 0
-47 -139 109 0
-47 -140 110 0
-48 -136 166 0
-48 -137 167 0
-48 -138 168 0
-48 -139 169 0
-48 -140 170 0
onlyOneValue
136 137 138 139 140 0
-136 -137 0
-136 -138 0
-136 -139 0
-136 -140 0
-137 -138 0
-137 -139 0
-137 -140 0
-138 -139 0
-138 -140 0
-139 -140 0
has_two_directions
-13 14 47 48 0
-14 13 47 48 0
-47 13 14 48 0
-48 13 14 47 0
13 -14 -47 -48 0
14 -13 -47 -48 0
47 -13 -14 -48 0
48 -13 -14 -47 0
14 15 52 53 0
connect_same_number
-14 -141 136 0
-14 -142 137 0
-14 -143 138 0
-14 -144 139 0
-14 -145 140 0
-15 -141 146 0
-15 -142 147 0
-15 -143 148 0
-15 -144 149 0
-15 -145 150 0
-52 -141 111 0
-52 -142 112 0
-52 -143 113 0
-52 -144 114 0
-52 -145 115 0
-53 -141 171 0
-53 -142 172 0
-53 -143 173 0
-53 -144 174 0
-53 -145 175 0
onlyOneValue
141 142 143 144 145 0
-141 -142 0
-141 -143 0
-141 -144 0
-141 -145 0
-142 -143 0
-142 -144 0
-142 -145 0
-143 -144 0
-143 -145 0
-144 -145 0
has_two_directions
-14 15 52 53 0
-15 14 52 53 0
-52 14 15 53 0
-53 14 15 52 0
14 -15 -52 -53 0
15 -14 -52 -53 0
52 -14 -15 -53 0
53 -14 -15 -52 0
15 57 58 0
connect_same_number
-15 -146 141 0
-15 -147 142 0
-15 -148 143 0
-15 -149 144 0
-15 -150 145 0
-57 -146 116 0
-57 -147 117 0
-57 -148 118 0
-57 -149 119 0
-57 -150 120 0
-58 -146 176 0
-58 -147 177 0
-58 -148 178 0
-58 -149 179 0
-58 -150 180 0
onlyOneValue
146 147 148 149 150 0
-146 -147 0
-146 -148 0
-146 -149 0
-146 -150 0
-147 -148 0
-147 -149 0
-147 -150 0
-148 -149 0
-148 -150 0
-149 -150 0
REdge_has_two_directions
-15 57 58 0
-57 15 58 0
-58 15 57 0
15 -57 -58 0
57 -15 -58 0
58 -15 -57 0
16 33 34 0
connect_same_number
-16 -151 156 0
-16 -152 157 0
-16 -153 158 0
-16 -154 159 0
-16 -155 160 0
-33 -151 121 0
-33 -152 122 0
-33 -153 123 0
-33 -154 124 0
-33 -155 125 0
-34 -151 181 0
-34 -152 182 0
-34 -153 183 0
-34 -154 184 0
-34 -155 185 0
onlyOneValue
151 152 153 154 155 0
-151 -152 0
-151 -153 0
-151 -154 0
-151 -155 0
-152 -153 0
-152 -154 0
-152 -155 0
-153 -154 0
-153 -155 0
-154 -155 0
LEdge_has_two_directions
-16 33 34 0
-33 16 34 0
-34 16 33 0
16 -33 -34 0
33 -16 -34 0
34 -16 -33 0
16 17 38 39 0
connect_same_number
-16 -156 151 0
-16 -157 152 0
-16 -158 153 0
-16 -159 154 0
-16 -160 155 0
-17 -156 161 0
-17 -157 162 0
-17 -158 163 0
-17 -159 164 0
-17 -160 165 0
-38 -156 126 0
-38 -157 127 0
-38 -158 128 0
-38 -159 129 0
-38 -160 130 0
-39 -156 186 0
-39 -157 187 0
-39 -158 188 0
-39 -159 189 0
-39 -160 190 0
onlyOneValue
156 157 158 159 160 0
-156 -157 0
-156 -158 0
-156 -159 0
-156 -160 0
-157 -158 0
-157 -159 0
-157 -160 0
-158 -159 0
-158 -160 0
-159 -160 0
has_two_directions
-16 17 38 39 0
-17 16 38 39 0
-38 16 17 39 0
-39 16 17 38 0
16 -17 -38 -39 0
17 -16 -38 -39 0
38 -16 -17 -39 0
39 -16 -17 -38 0
17 18 43 44 0
connect_same_number
-17 -161 156 0
-17 -162 157 0
-17 -163 158 0
-17 -164 159 0
-17 -165 160 0
-18 -161 166 0
-18 -162 167 0
-18 -163 168 0
-18 -164 169 0
-18 -165 170 0
-43 -161 131 0
-43 -162 132 0
-43 -163 133 0
-43 -164 134 0
-43 -165 135 0
-44 -161 191 0
-44 -162 192 0
-44 -163 193 0
-44 -164 194 0
-44 -165 195 0
onlyOneValue
161 162 163 164 165 0
-161 -162 0
-161 -163 0
-161 -164 0
-161 -165 0
-162 -163 0
-162 -164 0
-162 -165 0
-163 -164 0
-163 -165 0
-164 -165 0
valueFromInput
165 0
exact_one_direction
-17 -18 0
-17 -43 0
-17 -44 0
-18 -43 0
-18 -44 0
-43 -44 0
18 19 48 49 0
connect_same_number
-18 -166 161 0
-18 -167 162 0
-18 -168 163 0
-18 -169 164 0
-18 -170 165 0
-19 -166 171 0
-19 -167 172 0
-19 -168 173 0
-19 -169 174 0
-19 -170 175 0
-48 -166 136 0
-48 -167 137 0
-48 -168 138 0
-48 -169 139 0
-48 -170 140 0
-49 -166 196 0
-49 -167 197 0
-49 -168 198 0
-49 -169 199 0
-49 -170 200 0
onlyOneValue
166 167 168 169 170 0
-166 -167 0
-166 -168 0
-166 -169 0
-166 -170 0
-167 -168 0
-167 -169 0
-167 -170 0
-168 -169 0
-168 -170 0
-169 -170 0
valueFromInput
168 0
exact_one_direction
-18 -19 0
-18 -48 0
-18 -49 0
-19 -48 0
-19 -49 0
-48 -49 0
19 20 53 54 0
connect_same_number
-19 -171 166 0
-19 -172 167 0
-19 -173 168 0
-19 -174 169 0
-19 -175 170 0
-20 -171 176 0
-20 -172 177 0
-20 -173 178 0
-20 -174 179 0
-20 -175 180 0
-53 -171 141 0
-53 -172 142 0
-53 -173 143 0
-53 -174 144 0
-53 -175 145 0
-54 -171 201 0
-54 -172 202 0
-54 -173 203 0
-54 -174 204 0
-54 -175 205 0
onlyOneValue
171 172 173 174 175 0
-171 -172 0
-171 -173 0
-171 -174 0
-171 -175 0
-172 -173 0
-172 -174 0
-172 -175 0
-173 -174 0
-173 -175 0
-174 -175 0
has_two_directions
-19 20 53 54 0
-20 19 53 54 0
-53 19 20 54 0
-54 19 20 53 0
19 -20 -53 -54 0
20 -19 -53 -54 0
53 -19 -20 -54 0
54 -19 -20 -53 0
20 58 59 0
connect_same_number
-20 -176 171 0
-20 -177 172 0
-20 -178 173 0
-20 -179 174 0
-20 -180 175 0
-58 -176 146 0
-58 -177 147 0
-58 -178 148 0
-58 -179 149 0
-58 -180 150 0
-59 -176 206 0
-59 -177 207 0
-59 -178 208 0
-59 -179 209 0
-59 -180 210 0
onlyOneValue
176 177 178 179 180 0
-176 -177 0
-176 -178 0
-176 -179 0
-176 -180 0
-177 -178 0
-177 -179 0
-177 -180 0
-178 -179 0
-178 -180 0
-179 -180 0
REdge_has_two_directions
-20 58 59 0
-58 20 59 0
-59 20 58 0
20 -58 -59 0
58 -20 -59 0
59 -20 -58 0
21 34 35 0
connect_same_number
-21 -181 186 0
-21 -182 187 0
-21 -183 188 0
-21 -184 189 0
-21 -185 190 0
-34 -181 151 0
-34 -182 152 0
-34 -183 153 0
-34 -184 154 0
-34 -185 155 0
-35 -181 211 0
-35 -182 212 0
-35 -183 213 0
-35 -184 214 0
-35 -185 215 0
onlyOneValue
181 182 183 184 185 0
-181 -182 0
-181 -183 0
-181 -184 0
-181 -185 0
-182 -183 0
-182 -184 0
-182 -185 0
-183 -184 0
-183 -185 0
-184 -185 0
valueFromInput
182 0
LEdge_exact_one_direction
-21 -34 0
-21 -35 0
-34 -35 0
21 22 39 40 0
connect_same_number
-21 -186 181 0
-21 -187 182 0
-21 -188 183 0
-21 -189 184 0
-21 -190 185 0
-22 -186 191 0
-22 -187 192 0
-22 -188 193 0
-22 -189 194 0
-22 -190 195 0
-39 -186 156 0
-39 -187 157 0
-39 -188 158 0
-39 -189 159 0
-39 -190 160 0
-40 -186 216 0
-40 -187 217 0
-40 -188 218 0
-40 -189 219 0
-40 -190 220 0
onlyOneValue
186 187 188 189 190 0
-186 -187 0
-186 -188 0
-186 -189 0
-186 -190 0
-187 -188 0
-187 -189 0
-187 -190 0
-188 -189 0
-188 -190 0
-189 -190 0
has_two_directions
-21 22 39 40 0
-22 21 39 40 0
-39 21 22 40 0
-40 21 22 39 0
21 -22 -39 -40 0
22 -21 -39 -40 0
39 -21 -22 -40 0
40 -21 -22 -39 0
22 23 44 45 0
connect_same_number
-22 -191 186 0
-22 -192 187 0
-22 -193 188 0
-22 -194 189 0
-22 -195 190 0
-23 -191 196 0
-23 -192 197 0
-23 -193 198 0
-23 -194 199 0
-23 -195 200 0
-44 -191 161 0
-44 -192 162 0
-44 -193 163 0
-44 -194 164 0
-44 -195 165 0
-45 -191 221 0
-45 -192 222 0
-45 -193 223 0
-45 -194 224 0
-45 -195 225 0
onlyOneValue
191 192 193 194 195 0
-191 -192 0
-191 -193 0
-191 -194 0
-191 -195 0
-192 -193 0
-192 -194 0
-192 -195 0
-193 -194 0
-193 -195 0
-194 -195 0
has_two_directions
-22 23 44 45 0
-23 22 44 45 0
-44 22 23 45 0
-45 22 23 44 0
22 -23 -44 -45 0
23 -22 -44 -45 0
44 -22 -23 -45 0
45 -22 -23 -44 0
23 24 49 50 0
connect_same_number
-23 -196 191 0
-23 -197 192 0
-23 -198 193 0
-23 -199 194 0
-23 -200 195 0
-24 -196 201 0
-24 -197 202 0
-24 -198 203 0
-24 -199 204 0
-24 -200 205 0
-49 -196 166 0
-49 -197 167 0
-49 -198 168 0
-49 -199 169 0
-49 -200 170 0
-50 -196 226 0
-50 -197 227 0
-50 -198 228 0
-50 -199 229 0
-50 -200 230 0
onlyOneValue
196 197 198 199 200 0
-196 -197 0
-196 -198 0
-196 -199 0
-196 -200 0
-197 -198 0
-197 -199 0
-197 -200 0
-198 -199 0
-198 -200 0
-199 -200 0
valueFromInput
199 0
exact_one_direction
-23 -24 0
-23 -49 0
-23 -50 0
-24 -49 0
-24 -50 0
-49 -50 0
24 25 54 55 0
connect_same_number
-24 -201 196 0
-24 -202 197 0
-24 -203 198 0
-24 -204 199 0
-24 -205 200 0
-25 -201 206 0
-25 -202 207 0
-25 -203 208 0
-25 -204 209 0
-25 -205 210 0
-54 -201 171 0
-54 -202 172 0
-54 -203 173 0
-54 -204 174 0
-54 -205 175 0
-55 -201 231 0
-55 -202 232 0
-55 -203 233 0
-55 -204 234 0
-55 -205 235 0
onlyOneValue
201 202 203 204 205 0
-201 -202 0
-201 -203 0
-201 -204 0
-201 -205 0
-202 -203 0
-202 -204 0
-202 -205 0
-203 -204 0
-203 -205 0
-204 -205 0
has_two_directions
-24 25 54 55 0
-25 24 54 55 0
-54 24 25 55 0
-55 24 25 54 0
24 -25 -54 -55 0
25 -24 -54 -55 0
54 -24 -25 -55 0
55 -24 -25 -54 0
25 59 60 0
connect_same_number
-25 -206 201 0
-25 -207 202 0
-25 -208 203 0
-25 -209 204 0
-25 -210 205 0
-59 -206 176 0
-59 -207 177 0
-59 -208 178 0
-59 -209 179 0
-59 -210 180 0
-60 -206 236 0
-60 -207 237 0
-60 -208 238 0
-60 -209 239 0
-60 -210 240 0
onlyOneValue
206 207 208 209 210 0
-206 -207 0
-206 -208 0
-206 -209 0
-206 -210 0
-207 -208 0
-207 -209 0
-207 -210 0
-208 -209 0
-208 -210 0
-209 -210 0
REdge_has_two_directions
-25 59 60 0
-59 25 60 0
-60 25 59 0
25 -59 -60 0
59 -25 -60 0
60 -25 -59 0
26 35 0
connect_same_number
-26 -211 216 0
-26 -212 217 0
-26 -213 218 0
-26 -214 219 0
-26 -215 220 0
-35 -211 181 0
-35 -212 182 0
-35 -213 183 0
-35 -214 184 0
-35 -215 185 0
onlyOneValue
211 212 213 214 215 0
-211 -212 0
-211 -213 0
-211 -214 0
-211 -215 0
-212 -213 0
-212 -214 0
-212 -215 0
-213 -214 0
-213 -215 0
-214 -215 0
valueFromInput
211 0
LDConner_exact_one_direction
-35 -26 0
27 40 26 0
connect_same_number
-26 -216 211 0
-26 -217 212 0
-26 -218 213 0
-26 -219 214 0
-26 -220 215 0
-27 -216 221 0
-27 -217 222 0
-27 -218 223 0
-27 -219 224 0
-27 -220 225 0
-40 -216 186 0
-40 -217 187 0
-40 -218 188 0
-40 -219 189 0
-40 -220 190 0
onlyOneValue
216 217 218 219 220 0
-216 -217 0
-216 -218 0
-216 -219 0
-216 -220 0
-217 -218 0
-217 -219 0
-217 -220 0
-218 -219 0
-218 -220 0
-219 -220 0
DEdge_has_two_directions
-26 27 40 0
-27 26 40 0
-40 26 27 0
26 -27 -40 0
27 -26 -40 0
40 -26 -27 0
28 45 27 0
connect_same_number
-27 -221 216 0
-27 -222 217 0
-27 -223 218 0
-27 -224 219 0
-27 -225 220 0
-28 -221 226 0
-28 -222 227 0
-28 -223 228 0
-28 -224 229 0
-28 -225 230 0
-45 -221 191 0
-45 -222 192 0
-45 -223 193 0
-45 -224 194 0
-45 -225 195 0
onlyOneValue
221 222 223 224 225 0
-221 -222 0
-221 -223 0
-221 -224 0
-221 -225 0
-222 -223 0
-222 -224 0
-222 -225 0
-223 -224 0
-223 -225 0
-224 -225 0
DEdge_has_two_directions
-27 28 45 0
-28 27 45 0
-45 27 28 0
27 -28 -45 0
28 -27 -45 0
45 -27 -28 0
29 50 28 0
connect_same_number
-28 -226 221 0
-28 -227 222 0
-28 -228 223 0
-28 -229 224 0
-28 -230 225 0
-29 -226 231 0
-29 -227 232 0
-29 -228 233 0
-29 -229 234 0
-29 -230 235 0
-50 -226 196 0
-50 -227 197 0
-50 -228 198 0
-50 -229 199 0
-50 -230 200 0
onlyOneValue
226 227 228 229 230 0
-226 -227 0
-226 -228 0
-226 -229 0
-226 -230 0
-227 -228 0
-227 -229 0
-227 -230 0
-228 -229 0
-228 -230 0
-229 -230 0
DEdge_has_two_directions
-28 29 50 0
-29 28 50 0
-50 28 29 0
28 -29 -50 0
29 -28 -50 0
50 -28 -29 0
30 55 29 0
connect_same_number
-29 -231 226 0
-29 -232 227 0
-29 -233 228 0
-29 -234 229 0
-29 -235 230 0
-30 -231 236 0
-30 -232 237 0
-30 -233 238 0
-30 -234 239 0
-30 -235 240 0
-55 -231 201 0
-55 -232 202 0
-55 -233 203 0
-55 -234 204 0
-55 -235 205 0
onlyOneValue
231 232 233 234 235 0
-231 -232 0
-231 -233 0
-231 -234 0
-231 -235 0
-232 -233 0
-232 -234 0
-232 -235 0
-233 -234 0
-233 -235 0
-234 -235 0
valueFromInput
235 0
DEdge_exact_one_direction
-29 -30 0
-29 -55 0
-30 -55 0
30 60 0
connect_same_number
-30 -236 231 0
-30 -237 232 0
-30 -238 233 0
-30 -239 234 0
-30 -240 235 0
-60 -236 206 0
-60 -237 207 0
-60 -238 208 0
-60 -239 209 0
-60 -240 210 0
onlyOneValue
236 237 238 239 240 0
-236 -237 0
-236 -238 0
-236 -239 0
-236 -240 0
-237 -238 0
-237 -239 0
-237 -240 0
-238 -239 0
-238 -240 0
-239 -240 0
valueFromInput
239 0
RDConner_exact_one_direction
-60 -30 0